CapLotSizing_PM/src/Instancias/TCLSHT/6i6p4m/NBA07.OUT
 CG ITER, OVMR, OVMRUB =           1   12025.3642578    8455.5000000
 CG ITER, OVMR, OVMRUB =           2    8455.5000000    8455.5000000
 CG ITER, OVMR, OVMRUB =           3    8455.5000000    8455.5000000
 CG ITER, OVMR, OVMRUB =           4    8455.5000000    8455.5000000
 CG ITER, OVMR, OVMRUB =           5    8455.5019531    8455.5000000
 CG ITER, OVMR, OVMRUB =           6    8455.5019531    8455.5000000
 CG ITER, OVMR, OVMRUB =           7    8455.5019531    8455.5000000
 CG ITER, OVMR, OVMRUB =           8    8455.5019531    8455.5000000
 CG ITER, OVMR, OVMRUB =           9    8455.5019531    8455.5000000
 CG ITER, OVMR, OVMRUB =          10    8455.5019531    8455.5000000
OVLB =    8455.5019531 OVLUB =    8455.5000000 TIME =       0.3600000
